problems/csplib-prob056/params/sonet-60-30-22-3086.param
language Essence 1.3
letting nnodes be 60
letting nrings be 30
letting capacity be 22
letting demand be 
{{1, 2},
{1, 7},
{1, 9},
{1, 11},
{1, 13},
{1, 14},
{1, 16},
{1, 17},
{1, 18},
{1, 19},
{1, 21},
{1, 23},
{1, 25},
{1, 26},
{1, 27},
{1, 29},
{1, 31},
{1, 32},
{1, 33},
{1, 34},
{1, 35},
{1, 36},
{1, 37},
{1, 41},
{1, 42},
{1, 45},
{1, 48},
{1, 49},
{1, 53},
{1, 56},
{1, 58},
{1, 60},
{2, 3},
{2, 5},
{2, 6},
{2, 7},
{2, 8},
{2, 14},
{2, 15},
{2, 17},
{2, 18},
{2, 20},
{2, 22},
{2, 27},
{2, 29},
{2, 30},
{2, 31},
{2, 34},
{2, 40},
{2, 41},
{2, 42},
{2, 44},
{2, 45},
{2, 49},
{2, 51},
{2, 52},
{2, 53},
{2, 54},
{2, 56},
{2, 60},
{3, 5},
{3, 6},
{3, 7},
{3, 8},
{3, 9},
{3, 12},
{3, 13},
{3, 15},
{3, 17},
{3, 18},
{3, 19},
{3, 23},
{3, 24},
{3, 25},
{3, 26},
{3, 27},
{3, 28},
{3, 30},
{3, 32},
{3, 33},
{3, 35},
{3, 37},
{3, 40},
{3, 41},
{3, 42},
{3, 43},
{3, 45},
{3, 47},
{3, 49},
{3, 51},
{3, 53},
{3, 56},
{3, 57},
{3, 58},
{4, 5},
{4, 6},
{4, 10},
{4, 12},
{4, 13},
{4, 15},
{4, 22},
{4, 23},
{4, 25},
{4, 26},
{4, 30},
{4, 32},
{4, 33},
{4, 40},
{4, 41},
{4, 42},
{4, 44},
{4, 45},
{4, 47},
{4, 49},
{4, 50},
{4, 53},
{4, 55},
{4, 56},
{4, 57},
{4, 59},
{5, 6},
{5, 7},
{5, 8},
{5, 9},
{5, 14},
{5, 15},
{5, 23},
{5, 25},
{5, 30},
{5, 32},
{5, 34},
{5, 36},
{5, 37},
{5, 38},
{5, 39},
{5, 43},
{5, 44},
{5, 45},
{5, 47},
{5, 52},
{5, 55},
{5, 57},
{5, 58},
{6, 7},
{6, 8},
{6, 10},
{6, 11},
{6, 12},
{6, 15},
{6, 19},
{6, 22},
{6, 23},
{6, 24},
{6, 27},
{6, 28},
{6, 29},
{6, 30},
{6, 32},
{6, 33},
{6, 34},
{6, 40},
{6, 41},
{6, 48},
{6, 53},
{6, 54},
{6, 56},
{6, 57},
{6, 58},
{6, 59},
{7, 9},
{7, 10},
{7, 12},
{7, 13},
{7, 14},
{7, 15},
{7, 16},
{7, 17},
{7, 18},
{7, 20},
{7, 24},
{7, 25},
{7, 29},
{7, 30},
{7, 31},
{7, 32},
{7, 33},
{7, 38},
{7, 40},
{7, 41},
{7, 42},
{7, 43},
{7, 44},
{7, 46},
{7, 47},
{7, 51},
{7, 52},
{7, 54},
{7, 55},
{7, 56},
{7, 59},
{7, 60},
{8, 9},
{8, 12},
{8, 14},
{8, 16},
{8, 20},
{8, 21},
{8, 22},
{8, 23},
{8, 24},
{8, 27},
{8, 29},
{8, 30},
{8, 31},
{8, 33},
{8, 35},
{8, 37},
{8, 40},
{8, 41},
{8, 43},
{8, 49},
{8, 51},
{8, 58},
{8, 59},
{8, 60},
{9, 10},
{9, 13},
{9, 17},
{9, 20},
{9, 21},
{9, 22},
{9, 24},
{9, 30},
{9, 31},
{9, 32},
{9, 34},
{9, 38},
{9, 40},
{9, 42},
{9, 44},
{9, 46},
{9, 48},
{9, 49},
{9, 50},
{9, 53},
{9, 54},
{9, 57},
{9, 58},
{9, 59},
{10, 11},
{10, 13},
{10, 15},
{10, 19},
{10, 20},
{10, 21},
{10, 22},
{10, 23},
{10, 25},
{10, 26},
{10, 27},
{10, 34},
{10, 35},
{10, 36},
{10, 37},
{10, 38},
{10, 40},
{10, 42},
{10, 46},
{10, 50},
{10, 51},
{10, 53},
{10, 54},
{10, 56},
{10, 58},
{10, 60},
{11, 14},
{11, 16},
{11, 17},
{11, 18},
{11, 19},
{11, 22},
{11, 23},
{11, 25},
{11, 31},
{11, 32},
{11, 33},
{11, 34},
{11, 35},
{11, 38},
{11, 40},
{11, 41},
{11, 42},
{11, 43},
{11, 44},
{11, 45},
{11, 46},
{11, 51},
{11, 54},
{11, 56},
{11, 58},
{11, 60},
{12, 18},
{12, 19},
{12, 20},
{12, 22},
{12, 24},
{12, 27},
{12, 32},
{12, 33},
{12, 34},
{12, 37},
{12, 38},
{12, 41},
{12, 44},
{12, 45},
{12, 47},
{12, 49},
{12, 51},
{12, 59},
{13, 15},
{13, 16},
{13, 17},
{13, 18},
{13, 19},
{13, 22},
{13, 24},
{13, 25},
{13, 26},
{13, 30},
{13, 33},
{13, 35},
{13, 36},
{13, 39},
{13, 42},
{13, 44},
{13, 46},
{13, 47},
{13, 48},
{13, 49},
{13, 51},
{13, 52},
{13, 56},
{13, 58},
{14, 16},
{14, 17},
{14, 19},
{14, 22},
{14, 23},
{14, 25},
{14, 27},
{14, 30},
{14, 32},
{14, 34},
{14, 36},
{14, 39},
{14, 41},
{14, 42},
{14, 43},
{14, 44},
{14, 49},
{14, 50},
{14, 53},
{14, 55},
{14, 56},
{14, 58},
{14, 59},
{14, 60},
{15, 16},
{15, 20},
{15, 24},
{15, 26},
{15, 27},
{15, 31},
{15, 34},
{15, 35},
{15, 36},
{15, 40},
{15, 41},
{15, 42},
{15, 44},
{15, 47},
{15, 48},
{15, 51},
{15, 52},
{15, 54},
{15, 55},
{15, 56},
{15, 58},
{15, 59},
{16, 19},
{16, 20},
{16, 22},
{16, 23},
{16, 28},
{16, 31},
{16, 32},
{16, 33},
{16, 35},
{16, 37},
{16, 40},
{16, 41},
{16, 43},
{16, 44},
{16, 46},
{16, 47},
{16, 48},
{16, 49},
{16, 52},
{16, 53},
{16, 54},
{16, 56},
{16, 60},
{17, 18},
{17, 21},
{17, 25},
{17, 26},
{17, 27},
{17, 28},
{17, 30},
{17, 36},
{17, 37},
{17, 39},
{17, 40},
{17, 41},
{17, 42},
{17, 46},
{17, 50},
{17, 52},
{17, 55},
{17, 56},
{17, 57},
{17, 59},
{18, 20},
{18, 24},
{18, 27},
{18, 28},
{18, 29},
{18, 30},
{18, 32},
{18, 37},
{18, 38},
{18, 39},
{18, 40},
{18, 42},
{18, 44},
{18, 45},
{18, 46},
{18, 47},
{18, 49},
{18, 50},
{18, 52},
{18, 53},
{18, 55},
{18, 56},
{18, 57},
{18, 60},
{19, 20},
{19, 21},
{19, 24},
{19, 25},
{19, 26},
{19, 32},
{19, 35},
{19, 41},
{19, 42},
{19, 43},
{19, 44},
{19, 49},
{19, 50},
{19, 51},
{19, 52},
{19, 54},
{19, 55},
{19, 56},
{20, 21},
{20, 22},
{20, 23},
{20, 24},
{20, 25},
{20, 26},
{20, 27},
{20, 28},
{20, 29},
{20, 38},
{20, 40},
{20, 44},
{20, 45},
{20, 46},
{20, 47},
{20, 50},
{20, 51},
{20, 53},
{20, 55},
{20, 57},
{20, 58},
{20, 59},
{21, 22},
{21, 23},
{21, 24},
{21, 25},
{21, 26},
{21, 27},
{21, 32},
{21, 35},
{21, 36},
{21, 40},
{21, 42},
{21, 45},
{21, 47},
{21, 48},
{21, 49},
{21, 51},
{21, 54},
{21, 55},
{21, 56},
{21, 57},
{22, 24},
{22, 26},
{22, 29},
{22, 34},
{22, 38},
{22, 40},
{22, 41},
{22, 42},
{22, 43},
{22, 44},
{22, 48},
{22, 49},
{22, 50},
{22, 51},
{22, 54},
{22, 55},
{22, 56},
{22, 58},
{22, 60},
{23, 25},
{23, 27},
{23, 30},
{23, 32},
{23, 33},
{23, 34},
{23, 36},
{23, 37},
{23, 40},
{23, 41},
{23, 44},
{23, 45},
{23, 46},
{23, 48},
{23, 52},
{23, 54},
{23, 55},
{23, 57},
{23, 58},
{24, 25},
{24, 31},
{24, 32},
{24, 34},
{24, 36},
{24, 37},
{24, 38},
{24, 39},
{24, 41},
{24, 42},
{24, 45},
{24, 46},
{24, 50},
{24, 55},
{24, 57},
{24, 58},
{24, 59},
{24, 60},
{25, 26},
{25, 27},
{25, 28},
{25, 30},
{25, 31},
{25, 35},
{25, 36},
{25, 37},
{25, 43},
{25, 45},
{25, 46},
{25, 47},
{25, 50},
{25, 51},
{25, 54},
{25, 55},
{25, 59},
{25, 60},
{26, 27},
{26, 28},
{26, 30},
{26, 32},
{26, 34},
{26, 35},
{26, 36},
{26, 38},
{26, 41},
{26, 42},
{26, 44},
{26, 50},
{26, 51},
{26, 55},
{26, 57},
{26, 58},
{26, 60},
{27, 28},
{27, 31},
{27, 32},
{27, 33},
{27, 34},
{27, 35},
{27, 38},
{27, 42},
{27, 46},
{27, 48},
{27, 49},
{27, 50},
{27, 52},
{27, 54},
{27, 55},
{27, 56},
{27, 57},
{27, 59},
{28, 29},
{28, 30},
{28, 34},
{28, 36},
{28, 37},
{28, 39},
{28, 41},
{28, 44},
{28, 48},
{28, 49},
{28, 54},
{28, 57},
{28, 58},
{28, 59},
{29, 30},
{29, 33},
{29, 34},
{29, 35},
{29, 37},
{29, 40},
{29, 41},
{29, 43},
{29, 45},
{29, 46},
{29, 50},
{29, 52},
{29, 56},
{29, 58},
{29, 60},
{30, 31},
{30, 32},
{30, 33},
{30, 34},
{30, 35},
{30, 37},
{30, 39},
{30, 43},
{30, 44},
{30, 45},
{30, 46},
{30, 47},
{30, 49},
{30, 50},
{30, 51},
{30, 55},
{30, 57},
{30, 58},
{30, 59},
{31, 32},
{31, 37},
{31, 38},
{31, 41},
{31, 42},
{31, 44},
{31, 45},
{31, 46},
{31, 48},
{31, 52},
{31, 58},
{31, 60},
{32, 35},
{32, 36},
{32, 39},
{32, 42},
{32, 43},
{32, 44},
{32, 49},
{32, 52},
{32, 54},
{32, 55},
{32, 56},
{32, 57},
{32, 59},
{32, 60},
{33, 34},
{33, 36},
{33, 38},
{33, 41},
{33, 43},
{33, 44},
{33, 46},
{33, 49},
{33, 51},
{33, 55},
{33, 58},
{33, 60},
{34, 37},
{34, 45},
{34, 48},
{34, 49},
{34, 51},
{34, 52},
{34, 53},
{34, 56},
{34, 57},
{34, 58},
{34, 60},
{35, 36},
{35, 38},
{35, 39},
{35, 43},
{35, 45},
{35, 46},
{35, 50},
{35, 51},
{35, 52},
{35, 53},
{35, 56},
{35, 58},
{35, 59},
{35, 60},
{36, 37},
{36, 39},
{36, 41},
{36, 47},
{36, 49},
{36, 50},
{36, 51},
{36, 52},
{36, 53},
{36, 58},
{36, 59},
{36, 60},
{37, 38},
{37, 39},
{37, 44},
{37, 46},
{37, 48},
{37, 50},
{37, 53},
{37, 55},
{38, 40},
{38, 41},
{38, 52},
{38, 54},
{38, 58},
{39, 41},
{39, 42},
{39, 43},
{39, 45},
{39, 46},
{39, 48},
{39, 49},
{39, 51},
{39, 52},
{39, 54},
{39, 57},
{39, 58},
{39, 60},
{40, 41},
{40, 44},
{40, 45},
{40, 46},
{40, 47},
{40, 48},
{40, 50},
{40, 52},
{40, 53},
{40, 54},
{40, 57},
{40, 59},
{40, 60},
{41, 44},
{41, 45},
{41, 46},
{41, 47},
{41, 49},
{41, 54},
{41, 55},
{41, 57},
{41, 60},
{42, 43},
{42, 44},
{42, 47},
{42, 48},
{42, 49},
{42, 54},
{42, 55},
{42, 56},
{42, 59},
{42, 60},
{43, 44},
{43, 45},
{43, 47},
{43, 49},
{43, 50},
{43, 51},
{43, 52},
{43, 53},
{43, 55},
{44, 49},
{44, 50},
{44, 51},
{44, 54},
{44, 55},
{44, 56},
{44, 57},
{44, 58},
{45, 48},
{45, 50},
{45, 51},
{45, 53},
{45, 58},
{45, 59},
{46, 48},
{46, 49},
{46, 50},
{46, 52},
{46, 53},
{46, 55},
{47, 48},
{47, 49},
{47, 50},
{47, 52},
{47, 55},
{47, 58},
{47, 60},
{48, 50},
{48, 52},
{48, 53},
{48, 54},
{48, 55},
{48, 57},
{49, 50},
{49, 52},
{49, 57},
{49, 58},
{49, 59},
{49, 60},
{50, 51},
{50, 53},
{50, 54},
{50, 55},
{50, 58},
{51, 52},
{51, 53},
{51, 55},
{51, 56},
{51, 59},
{51, 60},
{52, 53},
{52, 56},
{52, 57},
{52, 59},
{52, 60},
{53, 54},
{53, 55},
{53, 56},
{53, 57},
{53, 58},
{54, 55},
{54, 58},
{55, 56},
{55, 58},
{55, 59},
{55, 60},
{56, 60},
{57, 58},
{57, 59},
{57, 60}}
